Route #1: 28 196 142 107 183 65 35 116 15 3 199 189 47 175 155 89 179 9 19 186 146 161 54 147 195 156 79 4 23 11 
Route #2: 67 132 10 153 59 86 93 118 182 45 77 33 13 12 73 32 50 96 139 103 141 74 100 81 130 112 120 125 109 149 152 95 129 187 68 49 
Route #3: 104 64 137 198 164 174 26 140 115 18 57 113 131 169 192 84 27 53 56 185 180 37 123 121 124 55 85 88 135 1 111 157 34 176 114 46 
Route #4: 136 122 62 36 
Route #5: 144 42 110 184 6 148 29 2 138 143 126 128 48 145 25 90 193 20 71 127 5 194 190 80 158 101 91 197 44 106 159 83 14 188 
Route #6: 171 63 99 94 70 162 60 30 173 108 133 16 61 72 24 92 160 117 82 17 7 170 165 58 66 52 105 
Route #7: 178 167 40 39 119 38 166 102 98 76 8 78 177 134 22 191 150 43 69 151 97 31 181 172 87 163 75 168 154 21 51 41 200 
Cost 1851.4
